WARNING: for repeatability, setting FPU to use double precision
============================[ Problem Statistics ]=============================
|                                                                             |
|  Number of variables:            50                                         |
|  Number of clauses:             218                                         |
|  Parse time:                   0.00 s                                       |
|                                                                             |
============================[ Search Statistics ]==============================
| Conflicts |          ORIGINAL         |          LEARNT          | Progress |
|           |    Vars  Clauses Literals |    Limit  Clauses Lit/Cl |          |
===============================================================================
===============================================================================
restarts              : 1
conflicts             : 41             (328000 /sec)
decisions             : 45             (0.00 % random) (360000 /sec)
propagations          : 517            (4136000 /sec)
conflict literals     : 147            (15.52 % deleted)
Memory used           : 20.00 MB
CPU time              : 0.000125 s

UNSATISFIABLE
